18 4
81 45 25 48 87 99 81 77 50 54 88 26 77 83 31 58 56 38
83 59 23 75 86 104 69 80 51 50 91 18 88 98 31 56 38 20
94 47 20 68 105 109 93 64 50 57 94 25 74 87 42 66 47 12
88 58 13 50 88 91 80 85 41 40 84 33 76 82 43 60 53 32
